data;

param n:=23;
param p:=4;
param r:=[1] 0 [2] 1 [3] 3 [4] 8 [5] 3 [6] 3 [7] 0 [8] 27 [9] 15 [10] 12 [11] 38 [12] 34 [13] 20 [14] 50 [15] 24 [16] 5 [17] 34 [18] 24 [19] 19 [20] 23 [21] 42 [22] 34 [23] 3 ;
param w:=[1] 36 [2] 33 [3] 22 [4] 3 [5] 9 [6] 58 [7] 21 [8] 66 [9] 60 [10] 63 [11] 22 [12] 27 [13] 69 [14] 69 [15] 58 [16] 3 [17] 31 [18] 75 [19] 65 [20] 94 [21] 21 [22] 96 [23] 74 ;

end;
